/*********************************************
 * OPL 12.10.0.0 Data
 * Author: Kinast
 * Creation date: Aug 17, 2021 at 11:47:31 AM
 *********************************************/

 nOrders = 50;
 nTasks = 600;

 nWorkgroups = 10;
 nWorkstations = 30;

 nCobots = 0;
 cobotTimeFactor = 0.7;

 workstations = {
 	< 0, "Workstation 0", 0, 1.07, 1.03, 1, 4 >,
 	< 1, "Workstation 1", 1, 0.94, 1.07, 1, 1 >,
 	< 2, "Workstation 2", 2, 1.03, 1.11, 1, 1 >,
 	< 3, "Workstation 3", 3, 1.23, 0.9, 1, 3 >,
 	< 4, "Workstation 4", 4, 0.96, 1.05, 1, 4 >,
 	< 5, "Workstation 5", 5, 1.15, 0.96, 1, 1 >,
 	< 6, "Workstation 6", 6, 0.79, 1.03, 1, 3 >,
 	< 7, "Workstation 7", 7, 0.8, 1.1, 1, 5 >,
 	< 8, "Workstation 8", 4, 1.06, 0.91, 1, 1 >,
 	< 9, "Workstation 9", 2, 1.12, 0.91, 1, 2 >,
 	< 10, "Workstation 10", 1, 1.17, 1.04, 1, 1 >,
 	< 11, "Workstation 11", 6, 0.86, 0.78, 1, 4 >,
 	< 12, "Workstation 12", 1, 1.23, 1.21, 1, 4 >,
 	< 13, "Workstation 13", 3, 1.17, 0.82, 1, 5 >,
 	< 14, "Workstation 14", 7, 1.02, 0.77, 1, 1 >,
 	< 15, "Workstation 15", 5, 0.95, 0.82, 1, 1 >,
 	< 16, "Workstation 16", 3, 0.95, 1.03, 1, 1 >,
 	< 17, "Workstation 17", 8, 0.9, 0.94, 1, 4 >,
 	< 18, "Workstation 18", 2, 1.02, 1.25, 1, 1 >,
 	< 19, "Workstation 19", 9, 1.18, 1.07, 1, 1 >,
 	< 20, "Workstation 20", 6, 1.04, 0.77, 1, 1 >,
 	< 21, "Workstation 21", 8, 1.13, 1.15, 1, 1 >,
 	< 22, "Workstation 22", 9, 1.16, 0.99, 1, 1 >,
 	< 23, "Workstation 23", 8, 1.23, 1.19, 1, 1 >,
 	< 24, "Workstation 24", 9, 1.19, 1.04, 1, 5 >,
 	< 25, "Workstation 25", 0, 0.84, 1.12, 1, 3 >,
 	< 26, "Workstation 26", 0, 0.75, 0.98, 1, 1 >,
 	< 27, "Workstation 27", 5, 1.23, 1.22, 1, 1 >,
 	< 28, "Workstation 28", 4, 1.12, 1.05, 1, 5 >,
 	< 29, "Workstation 29", 7, 0.91, 1.1, 1, 1 >
 };

 tasks = {
 	// order 0
 	< 0, 0, 1, 42, 83, 188, 1, -1 >,
 	< 1, 0, 8, 0, 71, 119, 3, 0 >,
 	< 2, 0, 5, 0, 0, 161, 9, 1 >,
 	< 3, 0, 10, 0, 0, 125, 0, 2 >,
 	< 4, 0, 3, 0, 0, 117, 2, 3 >,
 	< 5, 0, 2, 67, 85, 173, 8, 4 >,
 	< 6, 0, 2, 62, 0, 101, 7, 5 >,
 	< 7, 0, 1, 54, 0, 110, 6, 6 >,
 	< 8, 0, 6, 54, 0, 164, 4, 7 >,
 	< 9, 0, 4, 0, 0, 129, 5, 8 >,
 	< 10, 0, 5, 0, 0, 176, 1, 9 >,
 	< 11, 0, 9, 0, 84, 160, 3, 10 >,
 	// order 1
 	< 12, 1, 1, 45, 0, 200, 9, -1 >,
 	< 13, 1, 3, 79, 44, 142, 0, 12 >,
 	< 14, 1, 3, 71, 0, 199, 2, 13 >,
 	< 15, 1, 8, 0, 92, 153, 8, 14 >,
 	< 16, 1, 9, 61, 0, 137, 7, 15 >,
 	< 17, 1, 6, 38, 98, 136, 6, 16 >,
 	< 18, 1, 4, 0, 0, 133, 4, 17 >,
 	< 19, 1, 9, 0, 33, 162, 5, 18 >,
 	< 20, 1, 10, 87, 35, 143, 1, 19 >,
 	< 21, 1, 7, 0, 39, 200, 3, 20 >,
 	< 22, 1, 8, 34, 0, 197, 9, 21 >,
 	< 23, 1, 8, 0, 84, 200, 0, 22 >,
 	// order 2
 	< 24, 2, 6, 0, 0, 105, 2, -1 >,
 	< 25, 2, 9, 48, 37, 152, 8, 24 >,
 	< 26, 2, 4, 48, 48, 101, 7, 25 >,
 	< 27, 2, 8, 0, 94, 158, 6, 26 >,
 	< 28, 2, 4, 0, 72, 143, 4, 27 >,
 	< 29, 2, 10, 0, 0, 111, 5, 28 >,
 	< 30, 2, 1, 0, 0, 162, 1, 29 >,
 	< 31, 2, 4, 0, 73, 119, 3, 30 >,
 	< 32, 2, 5, 0, 77, 161, 9, 31 >,
 	< 33, 2, 7, 74, 0, 192, 0, 32 >,
 	< 34, 2, 10, 100, 91, 142, 2, 33 >,
 	< 35, 2, 3, 50, 0, 145, 8, 34 >,
 	// order 3
 	< 36, 3, 1, 0, 0, 199, 7, -1 >,
 	< 37, 3, 5, 0, 75, 124, 6, 36 >,
 	< 38, 3, 8, 0, 0, 195, 4, 37 >,
 	< 39, 3, 5, 34, 93, 133, 5, 38 >,
 	< 40, 3, 8, 64, 0, 142, 1, 39 >,
 	< 41, 3, 2, 0, 58, 120, 3, 40 >,
 	< 42, 3, 2, 49, 0, 174, 9, 41 >,
 	< 43, 3, 5, 0, 0, 169, 0, 42 >,
 	< 44, 3, 2, 52, 46, 113, 2, 43 >,
 	< 45, 3, 5, 33, 0, 131, 8, 44 >,
 	< 46, 3, 4, 81, 83, 165, 7, 45 >,
 	< 47, 3, 6, 97, 61, 143, 6, 46 >,
 	// order 4
 	< 48, 4, 2, 0, 0, 192, 4, -1 >,
 	< 49, 4, 2, 0, 0, 199, 5, 48 >,
 	< 50, 4, 3, 100, 82, 138, 1, 49 >,
 	< 51, 4, 9, 0, 0, 192, 3, 50 >,
 	< 52, 4, 4, 57, 0, 185, 9, 51 >,
 	< 53, 4, 6, 0, 0, 141, 0, 52 >,
 	< 54, 4, 1, 59, 0, 183, 2, 53 >,
 	< 55, 4, 7, 0, 0, 155, 8, 54 >,
 	< 56, 4, 2, 0, 0, 180, 7, 55 >,
 	< 57, 4, 9, 0, 0, 145, 6, 56 >,
 	< 58, 4, 6, 44, 0, 182, 4, 57 >,
 	< 59, 4, 3, 31, 61, 103, 5, 58 >,
 	// order 5
 	< 60, 5, 1, 67, 90, 161, 1, -1 >,
 	< 61, 5, 2, 0, 79, 116, 3, 60 >,
 	< 62, 5, 1, 46, 0, 113, 9, 61 >,
 	< 63, 5, 10, 67, 0, 114, 0, 62 >,
 	< 64, 5, 1, 0, 0, 116, 2, 63 >,
 	< 65, 5, 2, 0, 0, 170, 8, 64 >,
 	< 66, 5, 7, 0, 0, 124, 7, 65 >,
 	< 67, 5, 2, 0, 71, 143, 6, 66 >,
 	< 68, 5, 5, 0, 45, 113, 4, 67 >,
 	< 69, 5, 8, 0, 74, 113, 5, 68 >,
 	< 70, 5, 6, 0, 60, 102, 1, 69 >,
 	< 71, 5, 3, 100, 0, 152, 3, 70 >,
 	// order 6
 	< 72, 6, 7, 70, 53, 119, 9, -1 >,
 	< 73, 6, 6, 88, 0, 116, 0, 72 >,
 	< 74, 6, 4, 63, 0, 134, 2, 73 >,
 	< 75, 6, 5, 97, 73, 127, 8, 74 >,
 	< 76, 6, 5, 81, 92, 177, 7, 75 >,
 	< 77, 6, 3, 46, 0, 179, 6, 76 >,
 	< 78, 6, 1, 82, 92, 189, 4, 77 >,
 	< 79, 6, 10, 0, 34, 118, 5, 78 >,
 	< 80, 6, 10, 0, 54, 129, 1, 79 >,
 	< 81, 6, 7, 97, 0, 153, 3, 80 >,
 	< 82, 6, 9, 0, 0, 165, 9, 81 >,
 	< 83, 6, 2, 52, 76, 187, 0, 82 >,
 	// order 7
 	< 84, 7, 3, 0, 63, 168, 2, -1 >,
 	< 85, 7, 4, 69, 0, 100, 8, 84 >,
 	< 86, 7, 4, 0, 0, 131, 7, 85 >,
 	< 87, 7, 10, 0, 0, 154, 6, 86 >,
 	< 88, 7, 5, 37, 0, 102, 4, 87 >,
 	< 89, 7, 3, 0, 0, 149, 5, 88 >,
 	< 90, 7, 10, 40, 66, 186, 1, 89 >,
 	< 91, 7, 2, 92, 37, 166, 3, 90 >,
 	< 92, 7, 9, 50, 32, 114, 9, 91 >,
 	< 93, 7, 8, 0, 80, 164, 0, 92 >,
 	< 94, 7, 8, 48, 0, 176, 2, 93 >,
 	< 95, 7, 10, 0, 0, 129, 8, 94 >,
 	// order 8
 	< 96, 8, 3, 83, 93, 138, 7, -1 >,
 	< 97, 8, 9, 0, 0, 134, 6, 96 >,
 	< 98, 8, 1, 94, 71, 159, 4, 97 >,
 	< 99, 8, 9, 0, 38, 139, 5, 98 >,
 	< 100, 8, 3, 48, 0, 141, 1, 99 >,
 	< 101, 8, 9, 0, 61, 102, 3, 100 >,
 	< 102, 8, 9, 0, 60, 199, 9, 101 >,
 	< 103, 8, 3, 0, 0, 166, 0, 102 >,
 	< 104, 8, 3, 40, 75, 189, 2, 103 >,
 	< 105, 8, 9, 78, 96, 156, 8, 104 >,
 	< 106, 8, 1, 0, 95, 135, 7, 105 >,
 	< 107, 8, 5, 64, 75, 150, 6, 106 >,
 	// order 9
 	< 108, 9, 6, 0, 0, 129, 4, -1 >,
 	< 109, 9, 1, 0, 56, 133, 5, 108 >,
 	< 110, 9, 4, 0, 91, 115, 1, 109 >,
 	< 111, 9, 10, 46, 96, 156, 3, 110 >,
 	< 112, 9, 3, 0, 0, 174, 9, 111 >,
 	< 113, 9, 4, 65, 80, 181, 0, 112 >,
 	< 114, 9, 6, 0, 32, 158, 2, 113 >,
 	< 115, 9, 3, 0, 82, 147, 8, 114 >,
 	< 116, 9, 1, 0, 44, 175, 7, 115 >,
 	< 117, 9, 3, 0, 56, 188, 6, 116 >,
 	< 118, 9, 5, 72, 0, 123, 4, 117 >,
 	< 119, 9, 1, 66, 43, 194, 5, 118 >,
 	// order 10
 	< 120, 10, 10, 67, 44, 124, 1, -1 >,
 	< 121, 10, 9, 79, 0, 165, 3, 120 >,
 	< 122, 10, 9, 0, 0, 113, 9, 121 >,
 	< 123, 10, 9, 0, 30, 186, 0, 122 >,
 	< 124, 10, 8, 0, 54, 161, 2, 123 >,
 	< 125, 10, 6, 86, 59, 188, 8, 124 >,
 	< 126, 10, 6, 68, 0, 147, 7, 125 >,
 	< 127, 10, 1, 0, 34, 121, 6, 126 >,
 	< 128, 10, 2, 76, 35, 112, 4, 127 >,
 	< 129, 10, 7, 0, 0, 160, 5, 128 >,
 	< 130, 10, 6, 54, 0, 169, 1, 129 >,
 	< 131, 10, 9, 0, 0, 167, 3, 130 >,
 	// order 11
 	< 132, 11, 7, 0, 0, 128, 9, -1 >,
 	< 133, 11, 4, 0, 0, 194, 0, 132 >,
 	< 134, 11, 4, 86, 61, 196, 2, 133 >,
 	< 135, 11, 7, 71, 0, 154, 8, 134 >,
 	< 136, 11, 6, 0, 78, 132, 7, 135 >,
 	< 137, 11, 9, 0, 44, 134, 6, 136 >,
 	< 138, 11, 5, 95, 0, 189, 4, 137 >,
 	< 139, 11, 4, 0, 0, 140, 5, 138 >,
 	< 140, 11, 3, 85, 0, 127, 1, 139 >,
 	< 141, 11, 5, 0, 35, 102, 3, 140 >,
 	< 142, 11, 7, 37, 74, 169, 9, 141 >,
 	< 143, 11, 3, 54, 62, 200, 0, 142 >,
 	// order 12
 	< 144, 12, 5, 0, 92, 102, 2, -1 >,
 	< 145, 12, 9, 69, 63, 140, 8, 144 >,
 	< 146, 12, 2, 85, 46, 167, 7, 145 >,
 	< 147, 12, 3, 38, 0, 159, 6, 146 >,
 	< 148, 12, 6, 54, 0, 129, 4, 147 >,
 	< 149, 12, 5, 73, 57, 196, 5, 148 >,
 	< 150, 12, 3, 0, 71, 140, 1, 149 >,
 	< 151, 12, 5, 99, 61, 121, 3, 150 >,
 	< 152, 12, 3, 82, 96, 102, 9, 151 >,
 	< 153, 12, 1, 0, 54, 172, 0, 152 >,
 	< 154, 12, 9, 95, 31, 159, 2, 153 >,
 	< 155, 12, 3, 99, 31, 122, 8, 154 >,
 	// order 13
 	< 156, 13, 6, 0, 0, 164, 7, -1 >,
 	< 157, 13, 3, 59, 0, 176, 6, 156 >,
 	< 158, 13, 2, 0, 0, 141, 4, 157 >,
 	< 159, 13, 3, 0, 72, 152, 5, 158 >,
 	< 160, 13, 8, 73, 65, 111, 1, 159 >,
 	< 161, 13, 7, 58, 79, 159, 3, 160 >,
 	< 162, 13, 5, 47, 40, 141, 9, 161 >,
 	< 163, 13, 9, 0, 49, 140, 0, 162 >,
 	< 164, 13, 2, 78, 0, 151, 2, 163 >,
 	< 165, 13, 2, 40, 53, 145, 8, 164 >,
 	< 166, 13, 10, 0, 31, 194, 7, 165 >,
 	< 167, 13, 10, 57, 0, 148, 6, 166 >,
 	// order 14
 	< 168, 14, 5, 0, 82, 117, 4, -1 >,
 	< 169, 14, 7, 0, 0, 164, 5, 168 >,
 	< 170, 14, 3, 61, 0, 141, 1, 169 >,
 	< 171, 14, 7, 89, 0, 175, 3, 170 >,
 	< 172, 14, 7, 97, 0, 100, 9, 171 >,
 	< 173, 14, 7, 37, 0, 147, 0, 172 >,
 	< 174, 14, 10, 0, 0, 184, 2, 173 >,
 	< 175, 14, 10, 86, 67, 133, 8, 174 >,
 	< 176, 14, 5, 38, 0, 112, 7, 175 >,
 	< 177, 14, 8, 0, 0, 119, 6, 176 >,
 	< 178, 14, 5, 0, 0, 184, 4, 177 >,
 	< 179, 14, 7, 79, 0, 193, 5, 178 >,
 	// order 15
 	< 180, 15, 7, 0, 0, 159, 1, -1 >,
 	< 181, 15, 10, 79, 48, 161, 3, 180 >,
 	< 182, 15, 3, 88, 52, 182, 9, 181 >,
 	< 183, 15, 4, 76, 38, 125, 0, 182 >,
 	< 184, 15, 2, 94, 54, 185, 2, 183 >,
 	< 185, 15, 6, 32, 0, 128, 8, 184 >,
 	< 186, 15, 9, 0, 0, 196, 7, 185 >,
 	< 187, 15, 9, 69, 0, 131, 6, 186 >,
 	< 188, 15, 5, 32, 72, 131, 4, 187 >,
 	< 189, 15, 8, 0, 0, 184, 5, 188 >,
 	< 190, 15, 1, 86, 0, 199, 1, 189 >,
 	< 191, 15, 9, 50, 0, 186, 3, 190 >,
 	// order 16
 	< 192, 16, 3, 0, 31, 136, 9, -1 >,
 	< 193, 16, 10, 0, 91, 149, 0, 192 >,
 	< 194, 16, 3, 0, 0, 182, 2, 193 >,
 	< 195, 16, 8, 0, 0, 137, 8, 194 >,
 	< 196, 16, 2, 0, 0, 154, 7, 195 >,
 	< 197, 16, 5, 0, 0, 164, 6, 196 >,
 	< 198, 16, 1, 60, 0, 116, 4, 197 >,
 	< 199, 16, 4, 0, 34, 103, 5, 198 >,
 	< 200, 16, 3, 0, 0, 165, 1, 199 >,
 	< 201, 16, 9, 41, 68, 194, 3, 200 >,
 	< 202, 16, 3, 78, 57, 130, 9, 201 >,
 	< 203, 16, 2, 0, 80, 198, 0, 202 >,
 	// order 17
 	< 204, 17, 4, 81, 73, 147, 2, -1 >,
 	< 205, 17, 8, 0, 84, 187, 8, 204 >,
 	< 206, 17, 8, 99, 0, 119, 7, 205 >,
 	< 207, 17, 5, 0, 0, 138, 6, 206 >,
 	< 208, 17, 7, 48, 0, 108, 4, 207 >,
 	< 209, 17, 3, 79, 44, 114, 5, 208 >,
 	< 210, 17, 8, 0, 0, 191, 1, 209 >,
 	< 211, 17, 2, 0, 44, 141, 3, 210 >,
 	< 212, 17, 4, 0, 41, 136, 9, 211 >,
 	< 213, 17, 3, 82, 37, 173, 0, 212 >,
 	< 214, 17, 10, 53, 0, 173, 2, 213 >,
 	< 215, 17, 6, 0, 59, 176, 8, 214 >,
 	// order 18
 	< 216, 18, 1, 0, 74, 110, 7, -1 >,
 	< 217, 18, 4, 34, 0, 175, 6, 216 >,
 	< 218, 18, 7, 0, 100, 117, 4, 217 >,
 	< 219, 18, 1, 0, 0, 185, 5, 218 >,
 	< 220, 18, 3, 86, 64, 117, 1, 219 >,
 	< 221, 18, 2, 0, 43, 160, 3, 220 >,
 	< 222, 18, 2, 85, 52, 101, 9, 221 >,
 	< 223, 18, 10, 48, 52, 167, 0, 222 >,
 	< 224, 18, 7, 0, 0, 195, 2, 223 >,
 	< 225, 18, 9, 0, 0, 171, 8, 224 >,
 	< 226, 18, 5, 0, 42, 178, 7, 225 >,
 	< 227, 18, 3, 45, 0, 198, 6, 226 >,
 	// order 19
 	< 228, 19, 4, 92, 71, 172, 4, -1 >,
 	< 229, 19, 3, 0, 41, 107, 5, 228 >,
 	< 230, 19, 6, 31, 52, 118, 1, 229 >,
 	< 231, 19, 4, 0, 0, 125, 3, 230 >,
 	< 232, 19, 8, 63, 0, 192, 9, 231 >,
 	< 233, 19, 1, 92, 0, 130, 0, 232 >,
 	< 234, 19, 8, 0, 0, 147, 2, 233 >,
 	< 235, 19, 5, 95, 53, 171, 8, 234 >,
 	< 236, 19, 8, 99, 95, 142, 7, 235 >,
 	< 237, 19, 10, 0, 0, 109, 6, 236 >,
 	< 238, 19, 4, 45, 77, 130, 4, 237 >,
 	< 239, 19, 5, 77, 74, 122, 5, 238 >,
 	// order 20
 	< 240, 20, 7, 54, 0, 152, 1, -1 >,
 	< 241, 20, 6, 67, 0, 162, 3, 240 >,
 	< 242, 20, 2, 63, 0, 163, 9, 241 >,
 	< 243, 20, 9, 0, 0, 107, 0, 242 >,
 	< 244, 20, 4, 0, 99, 196, 2, 243 >,
 	< 245, 20, 9, 86, 0, 138, 8, 244 >,
 	< 246, 20, 4, 0, 35, 155, 7, 245 >,
 	< 247, 20, 1, 0, 0, 143, 6, 246 >,
 	< 248, 20, 9, 0, 95, 184, 4, 247 >,
 	< 249, 20, 8, 78, 0, 161, 5, 248 >,
 	< 250, 20, 7, 56, 0, 163, 1, 249 >,
 	< 251, 20, 3, 80, 57, 162, 3, 250 >,
 	// order 21
 	< 252, 21, 10, 59, 0, 193, 9, -1 >,
 	< 253, 21, 6, 0, 0, 192, 0, 252 >,
 	< 254, 21, 1, 68, 72, 169, 2, 253 >,
 	< 255, 21, 7, 0, 0, 128, 8, 254 >,
 	< 256, 21, 3, 0, 0, 119, 7, 255 >,
 	< 257, 21, 5, 98, 100, 179, 6, 256 >,
 	< 258, 21, 8, 0, 0, 191, 4, 257 >,
 	< 259, 21, 9, 75, 0, 177, 5, 258 >,
 	< 260, 21, 10, 0, 0, 122, 1, 259 >,
 	< 261, 21, 4, 42, 0, 161, 3, 260 >,
 	< 262, 21, 6, 78, 0, 160, 9, 261 >,
 	< 263, 21, 6, 0, 0, 164, 0, 262 >,
 	// order 22
 	< 264, 22, 6, 54, 72, 150, 2, -1 >,
 	< 265, 22, 7, 0, 47, 164, 8, 264 >,
 	< 266, 22, 10, 33, 0, 172, 7, 265 >,
 	< 267, 22, 3, 0, 0, 197, 6, 266 >,
 	< 268, 22, 10, 47, 55, 135, 4, 267 >,
 	< 269, 22, 1, 0, 0, 170, 5, 268 >,
 	< 270, 22, 7, 57, 0, 108, 1, 269 >,
 	< 271, 22, 4, 0, 71, 168, 3, 270 >,
 	< 272, 22, 6, 0, 95, 137, 9, 271 >,
 	< 273, 22, 7, 92, 0, 161, 0, 272 >,
 	< 274, 22, 4, 0, 0, 147, 2, 273 >,
 	< 275, 22, 7, 82, 73, 124, 8, 274 >,
 	// order 23
 	< 276, 23, 5, 83, 0, 158, 7, -1 >,
 	< 277, 23, 9, 54, 98, 129, 6, 276 >,
 	< 278, 23, 3, 60, 0, 184, 4, 277 >,
 	< 279, 23, 9, 0, 0, 170, 5, 278 >,
 	< 280, 23, 5, 0, 87, 130, 1, 279 >,
 	< 281, 23, 2, 95, 41, 157, 3, 280 >,
 	< 282, 23, 9, 0, 0, 122, 9, 281 >,
 	< 283, 23, 10, 0, 54, 153, 0, 282 >,
 	< 284, 23, 1, 94, 0, 132, 2, 283 >,
 	< 285, 23, 2, 70, 0, 182, 8, 284 >,
 	< 286, 23, 1, 0, 0, 192, 7, 285 >,
 	< 287, 23, 9, 0, 97, 176, 6, 286 >,
 	// order 24
 	< 288, 24, 4, 0, 79, 181, 4, -1 >,
 	< 289, 24, 4, 0, 42, 120, 5, 288 >,
 	< 290, 24, 5, 0, 0, 199, 1, 289 >,
 	< 291, 24, 9, 90, 0, 126, 3, 290 >,
 	< 292, 24, 5, 0, 0, 122, 9, 291 >,
 	< 293, 24, 9, 36, 0, 176, 0, 292 >,
 	< 294, 24, 5, 97, 0, 145, 2, 293 >,
 	< 295, 24, 10, 63, 0, 188, 8, 294 >,
 	< 296, 24, 1, 0, 43, 179, 7, 295 >,
 	< 297, 24, 4, 56, 60, 122, 6, 296 >,
 	< 298, 24, 4, 30, 61, 158, 4, 297 >,
 	< 299, 24, 2, 83, 81, 123, 5, 298 >,
 	// order 25
 	< 300, 25, 7, 77, 0, 136, 1, -1 >,
 	< 301, 25, 10, 0, 0, 142, 3, 300 >,
 	< 302, 25, 2, 42, 0, 158, 9, 301 >,
 	< 303, 25, 10, 0, 50, 147, 0, 302 >,
 	< 304, 25, 2, 68, 0, 155, 2, 303 >,
 	< 305, 25, 10, 0, 58, 177, 8, 304 >,
 	< 306, 25, 7, 30, 0, 181, 7, 305 >,
 	< 307, 25, 3, 38, 0, 123, 6, 306 >,
 	< 308, 25, 4, 57, 43, 199, 4, 307 >,
 	< 309, 25, 9, 0, 72, 174, 5, 308 >,
 	< 310, 25, 10, 0, 0, 160, 1, 309 >,
 	< 311, 25, 6, 0, 0, 111, 3, 310 >,
 	// order 26
 	< 312, 26, 4, 100, 49, 178, 9, -1 >,
 	< 313, 26, 5, 86, 0, 131, 0, 312 >,
 	< 314, 26, 4, 0, 33, 109, 2, 313 >,
 	< 315, 26, 4, 0, 94, 156, 8, 314 >,
 	< 316, 26, 2, 0, 0, 181, 7, 315 >,
 	< 317, 26, 1, 46, 85, 131, 6, 316 >,
 	< 318, 26, 2, 0, 0, 180, 4, 317 >,
 	< 319, 26, 4, 0, 0, 112, 5, 318 >,
 	< 320, 26, 1, 31, 0, 197, 1, 319 >,
 	< 321, 26, 6, 0, 0, 123, 3, 320 >,
 	< 322, 26, 5, 0, 0, 115, 9, 321 >,
 	< 323, 26, 4, 69, 0, 180, 0, 322 >,
 	// order 27
 	< 324, 27, 9, 46, 0, 118, 2, -1 >,
 	< 325, 27, 4, 0, 0, 115, 8, 324 >,
 	< 326, 27, 1, 0, 80, 172, 7, 325 >,
 	< 327, 27, 3, 0, 40, 155, 6, 326 >,
 	< 328, 27, 1, 0, 66, 161, 4, 327 >,
 	< 329, 27, 5, 53, 0, 115, 5, 328 >,
 	< 330, 27, 8, 61, 68, 151, 1, 329 >,
 	< 331, 27, 2, 95, 77, 101, 3, 330 >,
 	< 332, 27, 9, 0, 0, 110, 9, 331 >,
 	< 333, 27, 3, 70, 0, 194, 0, 332 >,
 	< 334, 27, 7, 0, 0, 115, 2, 333 >,
 	< 335, 27, 7, 0, 0, 163, 8, 334 >,
 	// order 28
 	< 336, 28, 7, 0, 0, 154, 7, -1 >,
 	< 337, 28, 10, 0, 0, 188, 6, 336 >,
 	< 338, 28, 4, 0, 0, 106, 4, 337 >,
 	< 339, 28, 4, 71, 33, 126, 5, 338 >,
 	< 340, 28, 2, 0, 0, 116, 1, 339 >,
 	< 341, 28, 2, 58, 0, 114, 3, 340 >,
 	< 342, 28, 4, 0, 0, 187, 9, 341 >,
 	< 343, 28, 3, 47, 0, 120, 0, 342 >,
 	< 344, 28, 7, 0, 31, 190, 2, 343 >,
 	< 345, 28, 3, 68, 0, 101, 8, 344 >,
 	< 346, 28, 6, 85, 0, 110, 7, 345 >,
 	< 347, 28, 5, 0, 0, 113, 6, 346 >,
 	// order 29
 	< 348, 29, 5, 0, 0, 113, 4, -1 >,
 	< 349, 29, 8, 0, 61, 193, 5, 348 >,
 	< 350, 29, 4, 53, 0, 155, 1, 349 >,
 	< 351, 29, 4, 0, 56, 116, 3, 350 >,
 	< 352, 29, 5, 0, 0, 156, 9, 351 >,
 	< 353, 29, 5, 0, 51, 161, 0, 352 >,
 	< 354, 29, 3, 0, 0, 114, 2, 353 >,
 	< 355, 29, 7, 0, 96, 139, 8, 354 >,
 	< 356, 29, 4, 0, 97, 180, 7, 355 >,
 	< 357, 29, 10, 0, 0, 169, 6, 356 >,
 	< 358, 29, 5, 0, 0, 191, 4, 357 >,
 	< 359, 29, 6, 0, 80, 188, 5, 358 >,
 	// order 30
 	< 360, 30, 3, 90, 38, 192, 1, -1 >,
 	< 361, 30, 4, 0, 90, 183, 3, 360 >,
 	< 362, 30, 8, 85, 0, 185, 9, 361 >,
 	< 363, 30, 3, 0, 0, 145, 0, 362 >,
 	< 364, 30, 5, 0, 0, 101, 2, 363 >,
 	< 365, 30, 8, 0, 0, 120, 8, 364 >,
 	< 366, 30, 4, 59, 0, 191, 7, 365 >,
 	< 367, 30, 3, 46, 72, 104, 6, 366 >,
 	< 368, 30, 9, 76, 0, 140, 4, 367 >,
 	< 369, 30, 6, 66, 97, 105, 5, 368 >,
 	< 370, 30, 4, 70, 0, 140, 1, 369 >,
 	< 371, 30, 1, 0, 33, 199, 3, 370 >,
 	// order 31
 	< 372, 31, 9, 0, 88, 144, 9, -1 >,
 	< 373, 31, 7, 82, 0, 122, 0, 372 >,
 	< 374, 31, 4, 41, 0, 185, 2, 373 >,
 	< 375, 31, 9, 95, 0, 172, 8, 374 >,
 	< 376, 31, 7, 48, 0, 145, 7, 375 >,
 	< 377, 31, 6, 75, 65, 183, 6, 376 >,
 	< 378, 31, 7, 34, 63, 191, 4, 377 >,
 	< 379, 31, 6, 96, 0, 178, 5, 378 >,
 	< 380, 31, 3, 83, 77, 110, 1, 379 >,
 	< 381, 31, 5, 40, 0, 139, 3, 380 >,
 	< 382, 31, 4, 0, 0, 188, 9, 381 >,
 	< 383, 31, 5, 0, 99, 115, 0, 382 >,
 	// order 32
 	< 384, 32, 10, 57, 34, 110, 2, -1 >,
 	< 385, 32, 5, 0, 51, 196, 8, 384 >,
 	< 386, 32, 6, 89, 0, 152, 7, 385 >,
 	< 387, 32, 6, 94, 46, 125, 6, 386 >,
 	< 388, 32, 4, 0, 0, 123, 4, 387 >,
 	< 389, 32, 7, 72, 0, 118, 5, 388 >,
 	< 390, 32, 2, 32, 60, 135, 1, 389 >,
 	< 391, 32, 2, 69, 33, 166, 3, 390 >,
 	< 392, 32, 9, 92, 67, 109, 9, 391 >,
 	< 393, 32, 4, 74, 61, 193, 0, 392 >,
 	< 394, 32, 7, 0, 0, 132, 2, 393 >,
 	< 395, 32, 9, 0, 84, 142, 8, 394 >,
 	// order 33
 	< 396, 33, 2, 68, 98, 187, 7, -1 >,
 	< 397, 33, 2, 0, 0, 135, 6, 396 >,
 	< 398, 33, 9, 0, 66, 183, 4, 397 >,
 	< 399, 33, 5, 0, 0, 151, 5, 398 >,
 	< 400, 33, 3, 69, 0, 152, 1, 399 >,
 	< 401, 33, 2, 0, 52, 181, 3, 400 >,
 	< 402, 33, 9, 0, 49, 123, 9, 401 >,
 	< 403, 33, 8, 53, 0, 156, 0, 402 >,
 	< 404, 33, 3, 0, 0, 152, 2, 403 >,
 	< 405, 33, 7, 82, 0, 194, 8, 404 >,
 	< 406, 33, 3, 58, 0, 135, 7, 405 >,
 	< 407, 33, 6, 69, 32, 139, 6, 406 >,
 	// order 34
 	< 408, 34, 8, 91, 50, 119, 4, -1 >,
 	< 409, 34, 2, 55, 40, 108, 5, 408 >,
 	< 410, 34, 2, 49, 0, 131, 1, 409 >,
 	< 411, 34, 1, 99, 0, 117, 3, 410 >,
 	< 412, 34, 1, 0, 59, 192, 9, 411 >,
 	< 413, 34, 5, 64, 0, 198, 0, 412 >,
 	< 414, 34, 4, 87, 0, 132, 2, 413 >,
 	< 415, 34, 8, 0, 0, 142, 8, 414 >,
 	< 416, 34, 9, 40, 0, 183, 7, 415 >,
 	< 417, 34, 3, 35, 0, 144, 6, 416 >,
 	< 418, 34, 6, 0, 0, 101, 4, 417 >,
 	< 419, 34, 6, 84, 92, 127, 5, 418 >,
 	// order 35
 	< 420, 35, 8, 0, 72, 117, 1, -1 >,
 	< 421, 35, 8, 0, 96, 173, 3, 420 >,
 	< 422, 35, 7, 40, 68, 147, 9, 421 >,
 	< 423, 35, 10, 0, 0, 116, 0, 422 >,
 	< 424, 35, 3, 0, 0, 104, 2, 423 >,
 	< 425, 35, 7, 47, 46, 153, 8, 424 >,
 	< 426, 35, 6, 55, 0, 171, 7, 425 >,
 	< 427, 35, 7, 69, 33, 101, 6, 426 >,
 	< 428, 35, 9, 0, 89, 170, 4, 427 >,
 	< 429, 35, 1, 0, 0, 110, 5, 428 >,
 	< 430, 35, 10, 79, 99, 137, 1, 429 >,
 	< 431, 35, 9, 96, 0, 153, 3, 430 >,
 	// order 36
 	< 432, 36, 4, 58, 0, 167, 9, -1 >,
 	< 433, 36, 5, 0, 91, 165, 0, 432 >,
 	< 434, 36, 4, 0, 0, 114, 2, 433 >,
 	< 435, 36, 5, 0, 44, 197, 8, 434 >,
 	< 436, 36, 9, 58, 0, 161, 7, 435 >,
 	< 437, 36, 9, 0, 41, 134, 6, 436 >,
 	< 438, 36, 8, 73, 66, 166, 4, 437 >,
 	< 439, 36, 3, 71, 0, 125, 5, 438 >,
 	< 440, 36, 10, 73, 0, 157, 1, 439 >,
 	< 441, 36, 6, 70, 42, 135, 3, 440 >,
 	< 442, 36, 7, 65, 97, 143, 9, 441 >,
 	< 443, 36, 8, 0, 0, 181, 0, 442 >,
 	// order 37
 	< 444, 37, 9, 35, 82, 160, 2, -1 >,
 	< 445, 37, 6, 0, 0, 145, 8, 444 >,
 	< 446, 37, 10, 0, 89, 109, 7, 445 >,
 	< 447, 37, 8, 32, 0, 157, 6, 446 >,
 	< 448, 37, 1, 41, 0, 138, 4, 447 >,
 	< 449, 37, 7, 0, 80, 184, 5, 448 >,
 	< 450, 37, 10, 0, 61, 115, 1, 449 >,
 	< 451, 37, 2, 87, 98, 116, 3, 450 >,
 	< 452, 37, 1, 0, 59, 158, 9, 451 >,
 	< 453, 37, 3, 78, 0, 176, 0, 452 >,
 	< 454, 37, 8, 0, 82, 118, 2, 453 >,
 	< 455, 37, 4, 48, 0, 156, 8, 454 >,
 	// order 38
 	< 456, 38, 8, 56, 79, 129, 7, -1 >,
 	< 457, 38, 3, 97, 0, 186, 6, 456 >,
 	< 458, 38, 2, 0, 0, 199, 4, 457 >,
 	< 459, 38, 4, 0, 0, 180, 5, 458 >,
 	< 460, 38, 4, 0, 0, 155, 1, 459 >,
 	< 461, 38, 1, 0, 0, 190, 3, 460 >,
 	< 462, 38, 8, 87, 68, 174, 9, 461 >,
 	< 463, 38, 5, 0, 0, 193, 0, 462 >,
 	< 464, 38, 3, 50, 100, 175, 2, 463 >,
 	< 465, 38, 10, 70, 62, 175, 8, 464 >,
 	< 466, 38, 9, 73, 0, 172, 7, 465 >,
 	< 467, 38, 2, 45, 0, 133, 6, 466 >,
 	// order 39
 	< 468, 39, 5, 0, 80, 112, 4, -1 >,
 	< 469, 39, 4, 0, 0, 189, 5, 468 >,
 	< 470, 39, 1, 60, 0, 130, 1, 469 >,
 	< 471, 39, 6, 0, 0, 129, 3, 470 >,
 	< 472, 39, 7, 0, 60, 144, 9, 471 >,
 	< 473, 39, 10, 0, 51, 108, 0, 472 >,
 	< 474, 39, 1, 0, 36, 164, 2, 473 >,
 	< 475, 39, 9, 0, 60, 128, 8, 474 >,
 	< 476, 39, 7, 71, 0, 188, 7, 475 >,
 	< 477, 39, 5, 0, 0, 164, 6, 476 >,
 	< 478, 39, 4, 53, 63, 157, 4, 477 >,
 	< 479, 39, 2, 34, 72, 156, 5, 478 >,
 	// order 40
 	< 480, 40, 2, 0, 0, 144, 1, -1 >,
 	< 481, 40, 7, 0, 86, 136, 3, 480 >,
 	< 482, 40, 1, 98, 0, 167, 9, 481 >,
 	< 483, 40, 1, 66, 30, 191, 0, 482 >,
 	< 484, 40, 8, 0, 38, 170, 2, 483 >,
 	< 485, 40, 5, 0, 67, 116, 8, 484 >,
 	< 486, 40, 2, 89, 59, 150, 7, 485 >,
 	< 487, 40, 4, 45, 0, 147, 6, 486 >,
 	< 488, 40, 6, 0, 0, 135, 4, 487 >,
 	< 489, 40, 4, 86, 0, 151, 5, 488 >,
 	< 490, 40, 3, 97, 87, 191, 1, 489 >,
 	< 491, 40, 1, 0, 46, 127, 3, 490 >,
 	// order 41
 	< 492, 41, 1, 0, 0, 193, 9, -1 >,
 	< 493, 41, 7, 0, 0, 125, 0, 492 >,
 	< 494, 41, 6, 0, 53, 100, 2, 493 >,
 	< 495, 41, 5, 0, 0, 178, 8, 494 >,
 	< 496, 41, 8, 0, 54, 103, 7, 495 >,
 	< 497, 41, 1, 75, 40, 191, 6, 496 >,
 	< 498, 41, 6, 0, 0, 192, 4, 497 >,
 	< 499, 41, 10, 57, 0, 108, 5, 498 >,
 	< 500, 41, 3, 45, 0, 155, 1, 499 >,
 	< 501, 41, 9, 0, 0, 119, 3, 500 >,
 	< 502, 41, 10, 0, 94, 128, 9, 501 >,
 	< 503, 41, 4, 0, 95, 104, 0, 502 >,
 	// order 42
 	< 504, 42, 3, 0, 0, 168, 2, -1 >,
 	< 505, 42, 10, 0, 40, 198, 8, 504 >,
 	< 506, 42, 10, 0, 0, 105, 7, 505 >,
 	< 507, 42, 9, 64, 0, 111, 6, 506 >,
 	< 508, 42, 4, 40, 72, 144, 4, 507 >,
 	< 509, 42, 1, 47, 41, 193, 5, 508 >,
 	< 510, 42, 6, 0, 53, 107, 1, 509 >,
 	< 511, 42, 9, 30, 0, 184, 3, 510 >,
 	< 512, 42, 9, 50, 0, 185, 9, 511 >,
 	< 513, 42, 7, 0, 99, 180, 0, 512 >,
 	< 514, 42, 3, 0, 0, 113, 2, 513 >,
 	< 515, 42, 9, 75, 74, 110, 8, 514 >,
 	// order 43
 	< 516, 43, 3, 0, 33, 143, 7, -1 >,
 	< 517, 43, 9, 0, 83, 107, 6, 516 >,
 	< 518, 43, 5, 0, 69, 199, 4, 517 >,
 	< 519, 43, 5, 0, 0, 160, 5, 518 >,
 	< 520, 43, 4, 60, 55, 169, 1, 519 >,
 	< 521, 43, 3, 0, 61, 156, 3, 520 >,
 	< 522, 43, 3, 0, 0, 112, 9, 521 >,
 	< 523, 43, 7, 83, 0, 200, 0, 522 >,
 	< 524, 43, 10, 0, 0, 106, 2, 523 >,
 	< 525, 43, 10, 0, 0, 140, 8, 524 >,
 	< 526, 43, 6, 0, 0, 106, 7, 525 >,
 	< 527, 43, 5, 0, 0, 140, 6, 526 >,
 	// order 44
 	< 528, 44, 9, 74, 0, 122, 4, -1 >,
 	< 529, 44, 6, 50, 0, 187, 5, 528 >,
 	< 530, 44, 4, 84, 52, 167, 1, 529 >,
 	< 531, 44, 3, 0, 41, 122, 3, 530 >,
 	< 532, 44, 4, 33, 87, 178, 9, 531 >,
 	< 533, 44, 6, 65, 93, 114, 0, 532 >,
 	< 534, 44, 8, 42, 0, 188, 2, 533 >,
 	< 535, 44, 8, 0, 0, 119, 8, 534 >,
 	< 536, 44, 9, 0, 61, 164, 7, 535 >,
 	< 537, 44, 7, 87, 50, 162, 6, 536 >,
 	< 538, 44, 1, 0, 0, 178, 4, 537 >,
 	< 539, 44, 6, 58, 46, 132, 5, 538 >,
 	// order 45
 	< 540, 45, 7, 0, 0, 157, 1, -1 >,
 	< 541, 45, 1, 0, 0, 155, 3, 540 >,
 	< 542, 45, 4, 0, 0, 172, 9, 541 >,
 	< 543, 45, 1, 0, 35, 108, 0, 542 >,
 	< 544, 45, 2, 0, 41, 164, 2, 543 >,
 	< 545, 45, 5, 0, 0, 155, 8, 544 >,
 	< 546, 45, 4, 0, 33, 137, 7, 545 >,
 	< 547, 45, 7, 0, 43, 193, 6, 546 >,
 	< 548, 45, 6, 71, 0, 170, 4, 547 >,
 	< 549, 45, 3, 94, 0, 137, 5, 548 >,
 	< 550, 45, 2, 37, 0, 175, 1, 549 >,
 	< 551, 45, 3, 67, 0, 105, 3, 550 >,
 	// order 46
 	< 552, 46, 7, 0, 65, 178, 9, -1 >,
 	< 553, 46, 8, 50, 0, 158, 0, 552 >,
 	< 554, 46, 5, 0, 0, 176, 2, 553 >,
 	< 555, 46, 6, 0, 78, 100, 8, 554 >,
 	< 556, 46, 9, 0, 92, 169, 7, 555 >,
 	< 557, 46, 5, 0, 0, 105, 6, 556 >,
 	< 558, 46, 3, 0, 0, 169, 4, 557 >,
 	< 559, 46, 8, 0, 0, 136, 5, 558 >,
 	< 560, 46, 4, 0, 97, 127, 1, 559 >,
 	< 561, 46, 3, 87, 99, 167, 3, 560 >,
 	< 562, 46, 4, 68, 95, 152, 9, 561 >,
 	< 563, 46, 3, 38, 0, 182, 0, 562 >,
 	// order 47
 	< 564, 47, 1, 0, 0, 194, 2, -1 >,
 	< 565, 47, 10, 68, 62, 116, 8, 564 >,
 	< 566, 47, 5, 0, 64, 199, 7, 565 >,
 	< 567, 47, 1, 91, 34, 183, 6, 566 >,
 	< 568, 47, 5, 97, 0, 176, 4, 567 >,
 	< 569, 47, 5, 0, 0, 144, 5, 568 >,
 	< 570, 47, 2, 0, 0, 156, 1, 569 >,
 	< 571, 47, 1, 0, 53, 125, 3, 570 >,
 	< 572, 47, 1, 0, 0, 151, 9, 571 >,
 	< 573, 47, 6, 85, 41, 194, 0, 572 >,
 	< 574, 47, 5, 35, 0, 122, 2, 573 >,
 	< 575, 47, 10, 76, 88, 123, 8, 574 >,
 	// order 48
 	< 576, 48, 4, 0, 31, 197, 7, -1 >,
 	< 577, 48, 4, 0, 0, 149, 6, 576 >,
 	< 578, 48, 7, 50, 75, 179, 4, 577 >,
 	< 579, 48, 8, 45, 0, 132, 5, 578 >,
 	< 580, 48, 1, 0, 0, 171, 1, 579 >,
 	< 581, 48, 9, 0, 91, 156, 3, 580 >,
 	< 582, 48, 4, 30, 31, 163, 9, 581 >,
 	< 583, 48, 9, 0, 0, 154, 0, 582 >,
 	< 584, 48, 5, 61, 49, 192, 2, 583 >,
 	< 585, 48, 4, 0, 60, 123, 8, 584 >,
 	< 586, 48, 8, 0, 0, 151, 7, 585 >,
 	< 587, 48, 2, 0, 0, 194, 6, 586 >,
 	// order 49
 	< 588, 49, 3, 79, 0, 172, 4, -1 >,
 	< 589, 49, 2, 68, 72, 101, 5, 588 >,
 	< 590, 49, 10, 0, 0, 167, 1, 589 >,
 	< 591, 49, 7, 72, 93, 179, 3, 590 >,
 	< 592, 49, 5, 89, 0, 133, 9, 591 >,
 	< 593, 49, 7, 0, 30, 183, 0, 592 >,
 	< 594, 49, 6, 63, 0, 169, 2, 593 >,
 	< 595, 49, 8, 0, 67, 128, 8, 594 >,
 	< 596, 49, 4, 91, 65, 188, 7, 595 >,
 	< 597, 49, 4, 86, 71, 138, 6, 596 >,
 	< 598, 49, 4, 0, 43, 187, 4, 597 >,
 	< 599, 49, 9, 0, 85, 195, 5, 598 >
 };
